NAME : rbg086a.tw.8400.tour
COMMENT : Length = 8400
COMMENT : Found by LKH [Keld Helsgaun] Thu Jan 16 16:41:05 2020
TYPE : TOUR
DIMENSION : 87
TOUR_SECTION
1
2
3
4
5
6
7
8
10
11
12
13
14
9
15
16
17
18
22
20
19
21
24
23
26
25
27
32
30
29
28
31
34
33
35
36
38
37
41
42
40
39
43
47
44
46
50
45
54
49
48
52
51
57
53
58
61
55
59
60
56
64
63
62
67
66
71
70
65
69
68
73
74
72
76
75
77
81
79
80
78
82
83
86
87
84
85
-1
EOF
